;; sequence(s): A158665
;; terms: 29 870 3393 7598 13485 21054 30305 41238 53853 68150 84129 101790 121133 142158 164865 189254 215325 243078 272513 303630
;; small program: loop(1 + (loop((2 + (2 + y)) * x, 2, x) - x), 2, x * x) - 1
;; fast program: (1 + ((2 + loop((x * x) * x, 1, 1 + 2)) * (x * x))) * (2 + loop((x * x) * x, 1, 1 + 2))
(set-logic UFNIA)
(declare-fun f1 (Int Int) Int)
(declare-fun g1 () Int)
(declare-fun h1 (Int) Int)
(declare-fun u1 (Int Int) Int)
(declare-fun v1 (Int) Int)
(declare-fun f0 (Int) Int)
(declare-fun g0 () Int)
(declare-fun h0 (Int) Int)
(declare-fun u0 (Int Int) Int)
(declare-fun v0 (Int) Int)
(declare-fun small (Int) Int)
(declare-fun f2 (Int) Int)
(declare-fun g2 () Int)
(declare-fun h2 () Int)
(declare-fun u2 (Int Int) Int)
(declare-fun v2 () Int)
(declare-fun f3 (Int) Int)
(declare-fun g3 () Int)
(declare-fun h3 () Int)
(declare-fun u3 (Int Int) Int)
(declare-fun v3 () Int)
(declare-fun fast (Int) Int)
(assert (forall ((x Int) (y Int)) (= (f1 x y) (* (+ 2 (+ 2 y)) x))))
(assert (= g1 2))
(assert (forall ((x Int)) (= (h1 x) x)))
(assert (forall ((x Int) (y Int)) (= (u1 x y) (ite (<= x 0) y (f1 (u1 (- x 1) y) x)))))
(assert (forall ((x Int)) (= (v1 x) (u1 g1 (h1 x)))))
(assert (forall ((x Int)) (= (f0 x) (+ 1 (- (v1 x) x)))))
(assert (= g0 2))
(assert (forall ((x Int)) (= (h0 x) (* x x))))
(assert (forall ((x Int) (y Int)) (= (u0 x y) (ite (<= x 0) y (f0 (u0 (- x 1) y))))))
(assert (forall ((x Int)) (= (v0 x) (u0 g0 (h0 x)))))
(assert (forall ((x Int)) (= (small x) (- (v0 x) 1))))
(assert (forall ((x Int)) (= (f2 x) (* (* x x) x))))
(assert (= g2 1))
(assert (= h2 (+ 1 2)))
(assert (forall ((x Int) (y Int)) (= (u2 x y) (ite (<= x 0) y (f2 (u2 (- x 1) y))))))
(assert (= v2 (u2 g2 h2)))
(assert (forall ((x Int)) (= (f3 x) (* (* x x) x))))
(assert (= g3 1))
(assert (= h3 (+ 1 2)))
(assert (forall ((x Int) (y Int)) (= (u3 x y) (ite (<= x 0) y (f3 (u3 (- x 1) y))))))
(assert (= v3 (u3 g3 h3)))
(assert (forall ((x Int)) (= (fast x) (* (+ 1 (* (+ 2 v2) (* x x))) (+ 2 v3)))))
(assert (exists ((c Int)) (and (>= c 0) (not (= (small c) (fast c))))))
(check-sat)
